WARNING: for repeatability, setting FPU to use double precision
============================[ Problem Statistics ]=============================
|                                                                             |
|  Number of variables:            50                                         |
|  Number of clauses:             218                                         |
|  Parse time:                   0.00 s                                       |
|                                                                             |
============================[ Search Statistics ]==============================
| Conflicts |          ORIGINAL         |          LEARNT          | Progress |
|           |    Vars  Clauses Literals |    Limit  Clauses Lit/Cl |          |
===============================================================================
===============================================================================
restarts              : 1
conflicts             : 58             (38436 /sec)
decisions             : 71             (0.00 % random) (47051 /sec)
propagations          : 902            (597747 /sec)
conflict literals     : 201            (23.28 % deleted)
Memory used           : 20.00 MB
CPU time              : 0.001509 s

SATISFIABLE
